p cnf 269 1040
a 74 0
e 1 2 3 4 5 6 7 8 9 10 11 12 13 14 15 16 83 90 268 269 0
a 75 76 77 0
e 17 18 19 20 21 22 23 24 25 26 27 28 29 30 31 32 33 34 35 36 37 38 39 40 41 42 43 44 45 46 47 48 49 50 51 52 53 54 55 97 100 103 106 109 112 115 118 121 124 127 130 135 140 145 150 155 260 261 262 263 264 265 266 267 0
a 78 79 80 81 82 0
e 56 57 58 59 60 61 62 63 64 65 66 67 68 69 70 71 72 73 84 85 86 87 88 89 91 92 93 94 95 96 98 99 101 102 104 105 107 108 110 111 113 114 116 117 119 120 122 123 125 126 128 129 131 132 133 134 136 137 138 139 141 142 143 144 146 147 148 149 151 152 153 154 156 157 158 159 160 161 162 163 164 165 166 167 168 169 170 171 172 173 174 175 176 177 178 179 180 181 182 183 184 185 186 187 188 189 190 191 192 193 194 195 196 197 198 199 200 201 202 203 204 205 206 207 208 209 210 211 212 213 214 215 216 217 218 219 220 221 222 223 224 225 226 227 228 229 230 231 232 233 234 235 236 237 238 239 240 241 242 243 244 245 246 247 248 249 250 251 252 253 254 255 256 257 258 259 0
83 269 0
-83 -74 0
74 83 0
-268 -90 269 0
-269 90 0
-269 268 0
-90 -74 89 0
74 90 0
-89 90 0
-88 -87 -86 -85 -84 -6 -6 89 0
-89 84 0
-89 6 0
-89 85 0
-89 86 0
-89 87 0
-89 88 0
-84 5 15 16 0
-5 84 0
-16 84 0
-15 84 0
-85 1 7 8 0
-1 85 0
-8 85 0
-7 85 0
-86 2 9 10 0
-2 86 0
-10 86 0
-9 86 0
-87 4 13 14 0
-4 87 0
-14 87 0
-13 87 0
-88 3 11 12 0
-3 88 0
-12 88 0
-11 88 0
-268 97 267 0
-97 268 0
-267 268 0
-96 -95 -94 -93 -92 -91 97 0
-97 91 0
-97 92 0
-97 93 0
-97 94 0
-97 95 0
-97 96 0
-91 -76 -6 75 77 0
6 91 0
-75 91 0
76 91 0
-77 91 0
-92 -76 -75 -5 77 0
5 92 0
75 92 0
76 92 0
-77 92 0
-93 -77 -4 75 76 0
4 93 0
-75 93 0
-76 93 0
77 93 0
-94 -77 -75 -3 76 0
3 94 0
75 94 0
-76 94 0
77 94 0
-95 -77 -76 -2 75 0
2 95 0
-75 95 0
76 95 0
77 95 0
-96 -77 -76 -75 -1 0
1 96 0
75 96 0
76 96 0
77 96 0
-266 -265 -264 -263 -262 -261 -260 -155 -150 -145 -140 -135 -130 -127 -124 -121 -118 -115 -112 -109 -106 -103 -100 267 0
-267 100 0
-267 103 0
-267 106 0
-267 109 0
-267 112 0
-267 115 0
-267 118 0
-267 121 0
-267 124 0
-267 127 0
-267 130 0
-267 135 0
-267 140 0
-267 145 0
-267 150 0
-267 155 0
-267 260 0
-267 261 0
-267 262 0
-267 263 0
-267 264 0
-267 265 0
-267 266 0
-100 22 49 49 54 99 0
-99 100 0
-22 100 0
-54 100 0
-49 100 0
-99 -16 98 0
16 99 0
-98 99 0
1 2 3 4 5 6 98 0
-98 -6 0
-98 -5 0
-98 -4 0
-98 -3 0
-98 -2 0
-98 -1 0
-103 21 48 55 102 0
-102 103 0
-21 103 0
-55 103 0
-48 103 0
-102 -15 101 0
15 102 0
-101 102 0
1 2 3 4 5 6 101 0
-101 -6 0
-101 -5 0
-101 -4 0
-101 -3 0
-101 -2 0
-101 -1 0
-106 21 48 48 53 105 0
-105 106 0
-21 106 0
-53 106 0
-48 106 0
-105 -14 104 0
14 105 0
-104 105 0
1 2 3 4 5 6 104 0
-104 -6 0
-104 -5 0
-104 -4 0
-104 -3 0
-104 -2 0
-104 -1 0
-109 20 47 54 108 0
-108 109 0
-20 109 0
-54 109 0
-47 109 0
-108 -13 107 0
13 108 0
-107 108 0
1 2 3 4 5 6 107 0
-107 -6 0
-107 -5 0
-107 -4 0
-107 -3 0
-107 -2 0
-107 -1 0
-112 20 47 47 52 111 0
-111 112 0
-20 112 0
-52 112 0
-47 112 0
-111 -12 110 0
12 111 0
-110 111 0
1 2 3 4 5 6 110 0
-110 -6 0
-110 -5 0
-110 -4 0
-110 -3 0
-110 -2 0
-110 -1 0
-115 19 46 53 114 0
-114 115 0
-19 115 0
-53 115 0
-46 115 0
-114 -11 113 0
11 114 0
-113 114 0
1 2 3 4 5 6 113 0
-113 -6 0
-113 -5 0
-113 -4 0
-113 -3 0
-113 -2 0
-113 -1 0
-118 19 46 46 51 117 0
-117 118 0
-19 118 0
-51 118 0
-46 118 0
-117 -10 116 0
10 117 0
-116 117 0
1 2 3 4 5 6 116 0
-116 -6 0
-116 -5 0
-116 -4 0
-116 -3 0
-116 -2 0
-116 -1 0
-121 18 45 52 120 0
-120 121 0
-18 121 0
-52 121 0
-45 121 0
-120 -9 119 0
9 120 0
-119 120 0
1 2 3 4 5 6 119 0
-119 -6 0
-119 -5 0
-119 -4 0
-119 -3 0
-119 -2 0
-119 -1 0
-124 18 45 45 50 123 0
-123 124 0
-18 124 0
-50 124 0
-45 124 0
-123 -8 122 0
8 123 0
-122 123 0
1 2 3 4 5 6 122 0
-122 -6 0
-122 -5 0
-122 -4 0
-122 -3 0
-122 -2 0
-122 -1 0
-127 17 44 51 126 0
-126 127 0
-17 127 0
-51 127 0
-44 127 0
-126 -7 125 0
7 126 0
-125 126 0
1 2 3 4 5 6 125 0
-125 -6 0
-125 -5 0
-125 -4 0
-125 -3 0
-125 -2 0
-125 -1 0
-130 128 129 0
-128 130 0
-129 130 0
-128 -76 75 77 0
-75 128 0
76 128 0
-77 128 0
-51 -45 -39 129 0
-129 39 0
-129 45 0
-129 51 0
-135 131 132 133 134 0
-131 135 0
-132 135 0
-133 135 0
-134 135 0
-131 -76 -75 77 0
75 131 0
76 131 0
-77 131 0
-55 -55 -48 -43 -31 132 0
-132 43 0
-132 31 0
-132 48 0
-132 55 0
-55 -55 -54 -49 -48 -37 133 0
-133 37 0
-133 48 0
-133 55 0
-133 49 0
-133 54 0
-54 -49 -42 -32 134 0
-134 42 0
-134 32 0
-134 49 0
-134 54 0
-140 136 137 138 139 0
-136 140 0
-137 140 0
-138 140 0
-139 140 0
-136 -77 75 76 0
-75 136 0
-76 136 0
77 136 0
-54 -54 -47 -42 -29 137 0
-137 42 0
-137 29 0
-137 47 0
-137 54 0
-54 -54 -53 -48 -47 -36 138 0
-138 36 0
-138 47 0
-138 54 0
-138 48 0
-138 53 0
-53 -48 -41 -30 139 0
-139 41 0
-139 30 0
-139 48 0
-139 53 0
-145 141 142 143 144 0
-141 145 0
-142 145 0
-143 145 0
-144 145 0
-141 -77 -75 76 0
75 141 0
-76 141 0
77 141 0
-53 -53 -46 -41 -27 142 0
-142 41 0
-142 27 0
-142 46 0
-142 53 0
-53 -53 -52 -47 -46 -35 143 0
-143 35 0
-143 46 0
-143 53 0
-143 47 0
-143 52 0
-52 -47 -40 -28 144 0
-144 40 0
-144 28 0
-144 47 0
-144 52 0
-150 146 147 148 149 0
-146 150 0
-147 150 0
-148 150 0
-149 150 0
-146 -77 -76 75 0
-75 146 0
76 146 0
77 146 0
-52 -52 -45 -40 -25 147 0
-147 40 0
-147 25 0
-147 45 0
-147 52 0
-52 -52 -51 -46 -45 -34 148 0
-148 34 0
-148 45 0
-148 52 0
-148 46 0
-148 51 0
-51 -46 -39 -26 149 0
-149 39 0
-149 26 0
-149 46 0
-149 51 0
-155 151 152 153 154 0
-151 155 0
-152 155 0
-153 155 0
-154 155 0
-151 -77 -76 -75 0
75 151 0
76 151 0
77 151 0
-51 -51 -44 -39 -23 152 0
-152 39 0
-152 23 0
-152 44 0
-152 51 0
-51 -51 -50 -45 -44 -33 153 0
-153 33 0
-153 44 0
-153 51 0
-153 45 0
-153 50 0
-50 -45 -38 -24 154 0
-154 38 0
-154 24 0
-154 45 0
-154 50 0
-260 172 259 0
-172 260 0
-259 260 0
-171 -170 -169 -168 -167 -166 -165 -164 -163 -162 -161 -160 -159 -158 -157 -156 172 0
-172 156 0
-172 157 0
-172 158 0
-172 159 0
-172 160 0
-172 161 0
-172 162 0
-172 163 0
-172 164 0
-172 165 0
-172 166 0
-172 167 0
-172 168 0
-172 169 0
-172 170 0
-172 171 0
-156 -82 -32 78 79 80 81 0
32 156 0
-78 156 0
-79 156 0
-80 156 0
-81 156 0
82 156 0
-157 -82 -78 -31 79 80 81 0
31 157 0
78 157 0
-79 157 0
-80 157 0
-81 157 0
82 157 0
-158 -82 -79 -30 78 80 81 0
30 158 0
-78 158 0
79 158 0
-80 158 0
-81 158 0
82 158 0
-159 -82 -79 -78 -29 80 81 0
29 159 0
78 159 0
79 159 0
-80 159 0
-81 159 0
82 159 0
-160 -82 -80 -28 78 79 81 0
28 160 0
-78 160 0
-79 160 0
80 160 0
-81 160 0
82 160 0
-161 -82 -80 -78 -27 79 81 0
27 161 0
78 161 0
-79 161 0
80 161 0
-81 161 0
82 161 0
-162 -82 -80 -79 -26 78 81 0
26 162 0
-78 162 0
79 162 0
80 162 0
-81 162 0
82 162 0
-163 -82 -80 -79 -78 -25 81 0
25 163 0
78 163 0
79 163 0
80 163 0
-81 163 0
82 163 0
-164 -82 -81 -24 78 79 80 0
24 164 0
-78 164 0
-79 164 0
-80 164 0
81 164 0
82 164 0
-165 -82 -81 -78 -23 79 80 0
23 165 0
78 165 0
-79 165 0
-80 165 0
81 165 0
82 165 0
-166 -82 -81 -79 -22 78 80 0
22 166 0
-78 166 0
79 166 0
-80 166 0
81 166 0
82 166 0
-167 -82 -81 -79 -78 -21 80 0
21 167 0
78 167 0
79 167 0
-80 167 0
81 167 0
82 167 0
-168 -82 -81 -80 -20 78 79 0
20 168 0
-78 168 0
-79 168 0
80 168 0
81 168 0
82 168 0
-169 -82 -81 -80 -78 -19 79 0
19 169 0
78 169 0
-79 169 0
80 169 0
81 169 0
82 169 0
-170 -82 -81 -80 -79 -18 78 0
18 170 0
-78 170 0
79 170 0
80 170 0
81 170 0
82 170 0
-171 -82 -81 -80 -79 -78 -17 0
17 171 0
78 171 0
79 171 0
80 171 0
81 171 0
82 171 0
-258 -257 -256 -255 -254 -253 -252 -250 -248 -246 -244 -242 -240 -237 -234 -231 -228 -225 -222 -219 -216 -213 -210 -206 -202 -198 -194 -190 -187 -184 -181 -178 -175 259 0
-259 175 0
-259 178 0
-259 181 0
-259 184 0
-259 187 0
-259 190 0
-259 194 0
-259 198 0
-259 202 0
-259 206 0
-259 210 0
-259 213 0
-259 216 0
-259 219 0
-259 222 0
-259 225 0
-259 228 0
-259 231 0
-259 234 0
-259 237 0
-259 240 0
-259 242 0
-259 244 0
-259 246 0
-259 248 0
-259 250 0
-259 252 0
-259 253 0
-259 254 0
-259 255 0
-259 256 0
-259 257 0
-259 258 0
-175 73 174 0
-174 175 0
-73 175 0
-174 -43 173 0
43 174 0
-173 174 0
17 18 19 20 21 22 23 24 25 26 27 28 29 30 31 32 173 0
-173 -32 0
-173 -31 0
-173 -30 0
-173 -29 0
-173 -28 0
-173 -27 0
-173 -26 0
-173 -25 0
-173 -24 0
-173 -23 0
-173 -22 0
-173 -21 0
-173 -20 0
-173 -19 0
-173 -18 0
-173 -17 0
-178 72 177 0
-177 178 0
-72 178 0
-177 -42 176 0
42 177 0
-176 177 0
17 18 19 20 21 22 23 24 25 26 27 28 29 30 31 32 176 0
-176 -32 0
-176 -31 0
-176 -30 0
-176 -29 0
-176 -28 0
-176 -27 0
-176 -26 0
-176 -25 0
-176 -24 0
-176 -23 0
-176 -22 0
-176 -21 0
-176 -20 0
-176 -19 0
-176 -18 0
-176 -17 0
-181 71 180 0
-180 181 0
-71 181 0
-180 -41 179 0
41 180 0
-179 180 0
17 18 19 20 21 22 23 24 25 26 27 28 29 30 31 32 179 0
-179 -32 0
-179 -31 0
-179 -30 0
-179 -29 0
-179 -28 0
-179 -27 0
-179 -26 0
-179 -25 0
-179 -24 0
-179 -23 0
-179 -22 0
-179 -21 0
-179 -20 0
-179 -19 0
-179 -18 0
-179 -17 0
-184 70 183 0
-183 184 0
-70 184 0
-183 -40 182 0
40 183 0
-182 183 0
17 18 19 20 21 22 23 24 25 26 27 28 29 30 31 32 182 0
-182 -32 0
-182 -31 0
-182 -30 0
-182 -29 0
-182 -28 0
-182 -27 0
-182 -26 0
-182 -25 0
-182 -24 0
-182 -23 0
-182 -22 0
-182 -21 0
-182 -20 0
-182 -19 0
-182 -18 0
-182 -17 0
-187 69 186 0
-186 187 0
-69 187 0
-186 -39 185 0
39 186 0
-185 186 0
17 18 19 20 21 22 23 24 25 26 27 28 29 30 31 32 185 0
-185 -32 0
-185 -31 0
-185 -30 0
-185 -29 0
-185 -28 0
-185 -27 0
-185 -26 0
-185 -25 0
-185 -24 0
-185 -23 0
-185 -22 0
-185 -21 0
-185 -20 0
-185 -19 0
-185 -18 0
-185 -17 0
-190 68 189 0
-189 190 0
-68 190 0
-189 -38 188 0
38 189 0
-188 189 0
17 18 19 20 21 22 23 24 25 26 27 28 29 30 31 32 188 0
-188 -32 0
-188 -31 0
-188 -30 0
-188 -29 0
-188 -28 0
-188 -27 0
-188 -26 0
-188 -25 0
-188 -24 0
-188 -23 0
-188 -22 0
-188 -21 0
-188 -20 0
-188 -19 0
-188 -18 0
-188 -17 0
-194 192 193 0
-192 194 0
-193 194 0
-192 -37 191 0
37 192 0
-191 192 0
17 18 19 20 21 22 23 24 25 26 27 28 29 30 31 32 191 0
-191 -32 0
-191 -31 0
-191 -30 0
-191 -29 0
-191 -28 0
-191 -27 0
-191 -26 0
-191 -25 0
-191 -24 0
-191 -23 0
-191 -22 0
-191 -21 0
-191 -20 0
-191 -19 0
-191 -18 0
-191 -17 0
-73 -72 193 0
-193 73 0
-193 72 0
-198 196 197 0
-196 198 0
-197 198 0
-196 -36 195 0
36 196 0
-195 196 0
17 18 19 20 21 22 23 24 25 26 27 28 29 30 31 32 195 0
-195 -32 0
-195 -31 0
-195 -30 0
-195 -29 0
-195 -28 0
-195 -27 0
-195 -26 0
-195 -25 0
-195 -24 0
-195 -23 0
-195 -22 0
-195 -21 0
-195 -20 0
-195 -19 0
-195 -18 0
-195 -17 0
-72 -71 197 0
-197 72 0
-197 71 0
-202 200 201 0
-200 202 0
-201 202 0
-200 -35 199 0
35 200 0
-199 200 0
17 18 19 20 21 22 23 24 25 26 27 28 29 30 31 32 199 0
-199 -32 0
-199 -31 0
-199 -30 0
-199 -29 0
-199 -28 0
-199 -27 0
-199 -26 0
-199 -25 0
-199 -24 0
-199 -23 0
-199 -22 0
-199 -21 0
-199 -20 0
-199 -19 0
-199 -18 0
-199 -17 0
-71 -70 201 0
-201 71 0
-201 70 0
-206 204 205 0
-204 206 0
-205 206 0
-204 -34 203 0
34 204 0
-203 204 0
17 18 19 20 21 22 23 24 25 26 27 28 29 30 31 32 203 0
-203 -32 0
-203 -31 0
-203 -30 0
-203 -29 0
-203 -28 0
-203 -27 0
-203 -26 0
-203 -25 0
-203 -24 0
-203 -23 0
-203 -22 0
-203 -21 0
-203 -20 0
-203 -19 0
-203 -18 0
-203 -17 0
-70 -69 205 0
-205 70 0
-205 69 0
-210 208 209 0
-208 210 0
-209 210 0
-208 -33 207 0
33 208 0
-207 208 0
17 18 19 20 21 22 23 24 25 26 27 28 29 30 31 32 207 0
-207 -32 0
-207 -31 0
-207 -30 0
-207 -29 0
-207 -28 0
-207 -27 0
-207 -26 0
-207 -25 0
-207 -24 0
-207 -23 0
-207 -22 0
-207 -21 0
-207 -20 0
-207 -19 0
-207 -18 0
-207 -17 0
-69 -68 209 0
-209 69 0
-209 68 0
-213 211 212 0
-211 213 0
-212 213 0
-211 -82 78 79 80 81 0
-78 211 0
-79 211 0
-80 211 0
-81 211 0
82 211 0
-73 -73 -66 -61 212 0
-212 61 0
-212 66 0
-212 73 0
-216 214 215 0
-214 216 0
-215 216 0
-214 -82 -78 79 80 81 0
78 214 0
-79 214 0
-80 214 0
-81 214 0
82 214 0
-72 -67 -60 215 0
-215 60 0
-215 67 0
-215 72 0
-219 217 218 0
-217 219 0
-218 219 0
-217 -82 -79 78 80 81 0
-78 217 0
79 217 0
-80 217 0
-81 217 0
82 217 0
-72 -72 -65 -60 218 0
-218 60 0
-218 65 0
-218 72 0
-222 220 221 0
-220 222 0
-221 222 0
-220 -82 -79 -78 80 81 0
78 220 0
79 220 0
-80 220 0
-81 220 0
82 220 0
-71 -66 -59 221 0
-221 59 0
-221 66 0
-221 71 0
-225 223 224 0
-223 225 0
-224 225 0
-223 -82 -80 78 79 81 0
-78 223 0
-79 223 0
80 223 0
-81 223 0
82 223 0
-71 -71 -64 -59 224 0
-224 59 0
-224 64 0
-224 71 0
-228 226 227 0
-226 228 0
-227 228 0
-226 -82 -80 -78 79 81 0
78 226 0
-79 226 0
80 226 0
-81 226 0
82 226 0
-70 -65 -58 227 0
-227 58 0
-227 65 0
-227 70 0
-231 229 230 0
-229 231 0
-230 231 0
-229 -82 -80 -79 78 81 0
-78 229 0
79 229 0
80 229 0
-81 229 0
82 229 0
-70 -70 -63 -58 230 0
-230 58 0
-230 63 0
-230 70 0
-234 232 233 0
-232 234 0
-233 234 0
-232 -82 -80 -79 -78 81 0
78 232 0
79 232 0
80 232 0
-81 232 0
82 232 0
-69 -64 -57 233 0
-233 57 0
-233 64 0
-233 69 0
-237 235 236 0
-235 237 0
-236 237 0
-235 -82 -81 78 79 80 0
-78 235 0
-79 235 0
-80 235 0
81 235 0
82 235 0
-69 -69 -62 -57 236 0
-236 57 0
-236 62 0
-236 69 0
-240 238 239 0
-238 240 0
-239 240 0
-238 -82 -81 -78 79 80 0
78 238 0
-79 238 0
-80 238 0
81 238 0
82 238 0
-68 -63 -56 239 0
-239 56 0
-239 63 0
-239 68 0
-242 67 241 0
-241 242 0
-67 242 0
-241 -82 -81 -79 78 80 0
-78 241 0
79 241 0
-80 241 0
81 241 0
82 241 0
-244 66 243 0
-243 244 0
-66 244 0
-243 -82 -81 -79 -78 80 0
78 243 0
79 243 0
-80 243 0
81 243 0
82 243 0
-246 65 245 0
-245 246 0
-65 246 0
-245 -82 -81 -80 78 79 0
-78 245 0
-79 245 0
80 245 0
81 245 0
82 245 0
-248 64 247 0
-247 248 0
-64 248 0
-247 -82 -81 -80 -78 79 0
78 247 0
-79 247 0
80 247 0
81 247 0
82 247 0
-250 63 249 0
-249 250 0
-63 250 0
-249 -82 -81 -80 -79 78 0
-78 249 0
79 249 0
80 249 0
81 249 0
82 249 0
-252 62 251 0
-251 252 0
-62 252 0
-251 -82 -81 -80 -79 -78 0
78 251 0
79 251 0
80 251 0
81 251 0
82 251 0
-253 -73 -67 0
67 253 0
73 253 0
-254 -72 -66 0
66 254 0
72 254 0
-255 -71 -65 0
65 255 0
71 255 0
-256 -70 -64 0
64 256 0
70 256 0
-257 -69 -63 0
63 257 0
69 257 0
-258 -68 -62 0
62 258 0
68 258 0
-261 -55 -49 0
49 261 0
55 261 0
-262 -54 -48 0
48 262 0
54 262 0
-263 -53 -47 0
47 263 0
53 263 0
-264 -52 -46 0
46 264 0
52 264 0
-265 -51 -45 0
45 265 0
51 265 0
-266 -50 -44 0
44 266 0
50 266 0
